8 28 4
0 1 3.00
0 2 1.00
0 3 8.00
0 4 1.00
0 5 8.00
0 6 1.00
0 7 3.00
1 2 3.00
1 3 8.00
1 4 8.00
1 5 8.00
1 6 8.00
1 7 8.00
2 3 3.00
2 4 1.00
2 5 8.00
2 6 1.00
2 7 8.00
3 4 3.00
3 5 8.00
3 6 8.00
3 7 8.00
4 5 3.00
4 6 1.00
4 7 8.00
5 6 3.00
5 7 8.00
6 7 3.00
0
2
4
6
